HUN,8,6,768
0,24,1,22,2,13,3,2,4,6,5,28
0,24,1,11,2,24,4,22,3,17,5,7
0,4,2,10,1,11,3,20,4,25,5,2
1,10,0,19,2,11,5,6,3,24,4,10
0,13,2,7,1,19,5,3,4,3,3,9
2,9,1,23,0,9,5,22,4,27,3,3
0,19,2,8,1,27,4,7,5,21,3,13
1,27,0,18,2,1,4,15,3,18,5,30
